#include lmp.in
#variable temperature equal      300.000
#variable patm equal        1.000
#variable dt equal        1.000
#variable trelax equal     10000.000
#variable id equal 250.000
#variable A equal 50.000
#variable vel equal 1.000000e-04
#variable R equal 100.000
#variable K equal 1.000
#variable pxatm equal 0.00
#variable pyatm equal 0.00

group film subtract all bord            # Central atoms not Thermostated

variable    tdamp   equal 100*${dt}
variable    pdamp   equal 1000*${dt}
variable    xcm     equal xcm(all,x)
variable    ycm     equal xcm(all,y)
variable    zcm     equal xcm(all,z)
variable    trun    equal floor(${id}/(${vel}*${dt})) # Total indentation timesteps.	
variable    tdump   equal floor(1.0/(${vel}*${dt}))  # Dump indentation every this timesteps.
thermo          1000
thermo_style    custom step temp ke pe etotal press lx ly lz vol
thermo_modify   lost warn norm yes lost/bond warn
timestep        ${dt} 

# ------------- Energy minimization
min_style cg
fix BoxRelax all box/relax y 0.0 vmax 0.01 nreset 10 fixedpoint ${xcm} ${ycm} ${zcm}
minimize 1.0e-25 1.0e-25 100000 1000000
write_dump all custom dump.min id mol type x y z
unfix          BoxRelax

# ------------- Equilibration NPT on all sample
velocity        all create ${temperature} 1938072 dist gaussian 
fix             1 all nph y 0.0 ${pyatm} ${pdamp} fixedpoint ${xcm} ${ycm} ${zcm}
fix             langevin all langevin ${temperature} ${temperature} ${tdamp} 32258453 zero yes
dump            1 all custom 10000 dump.equi1.* id mol type x y z
dump_modify     1 element ${ele_string}
run             ${trelax}
undump          1
unfix           langevin
#write_dump all custom dump.npt_final id mol type x y z

#--------------- Equilibration 2 on group film1
reset_timestep  0
compute	        central film temp  # temp controllers 
dump            1 all custom 10000 dump.equi2.* id mol type x y z #vx vy vz 
fix             2 bord langevin ${temperature} ${temperature} ${tdamp} 32258453 zero yes
variable 	temp2 equal c_central
thermo_style    custom step temp ke pe etotal press lx ly lz vol v_temp2
thermo_modify   lost warn norm yes lost/bond warn
run             ${trelax}
undump          1

reset_timestep  0
#compute         1 all stress/atom NULL virial
variable        xmin     equal bound(all,xmin)
variable        xmax     equal bound(all,xmax)
variable        zmin     equal bound(all,zmin)
variable        zmax     equal bound(all,zmax)
variable        x11     equal ${xmin}+$A
variable        x12     equal ${xmax}-$A
variable 	ih 	equal ${zmax}+$R
variable 	il 	equal ${zmin}-$R
variable    	z1      equal vdisplace(${ih},-${vel}) # initial height indentation
#variable    	z1_min  equal ${ih}-${id} # final height of indentation, in Angs
#variable    	z2      equal vdisplace(${z1_min},${vel}) # final height of indentation, in Angs

print           "xmin = ${xmin}; xmax = ${xmax}; zmin = ${zmin}; zmax = ${zmax}; "

#---------------- 3PF TEST
dump            1 all custom ${tdump} dump.indent.* id mol type x y z 
fix             4 all indent $K cylinder y v_xcm v_z1 $R units box 
fix             41 all indent $K cylinder y ${x11} ${il} $R units box 
fix             42 all indent $K cylinder y ${x12} ${il} $R units box 
fix             5 all ave/time 2 100 1000 v_z1 f_4 f_4[1] f_4[2] f_4[3] file temp.indent off 1
thermo_style    custom step temp ke pe etotal press pxx pyy pzz pxy pyz pxz v_temp2 f_4 f_4[1] f_4[2] f_4[3]

run             ${trun}
undump          1
unfix           4
unfix           41
unfix           42
unfix           5

#---------------- Holding the indenter
#dump            1 all custom ${tdump} dump.hold.* id mol type x y z 
#fix             4 all indent $K cylinder y ${xI} ${z1_min} $R units box
#fix             5 all ave/time 2 10 100 v_z1 f_4 f_4[1] f_4[2] f_4[3] file temp.hold off 1
#run             ${trelax} 
#undump          1
#unfix           4
#unfix           5
#
##---------------- Removing the indenter
#dump            1 all custom ${tdump} dump.remove.* id mol type x y z 
#fix             4 all indent $K cylinder y ${xI} v_z2 $R units box 
#fix             5 all ave/time 2 10 100 v_z2 f_4 f_4[1] f_4[2] f_4[3] file temp.remove off 1
#run             ${trun}
#undump          1
#unfix           4
#unfix           5

######################################
# SIMULATION DONE
